100 50
15 45
7 12
18 52
9 173
1 49
13 44
3 85
5 15
6 41
8 119
12 125
15 75
19 46
14 117
9 39
10 16
20 95
14 132
4 195
19 11
14 44
11 136
8 89
1 68
4 177
11 32
20 83
19 90
18 131
20 188
14 18
3 93
5 45
19 128
11 166
7 77
10 41
12 180
10 5
17 89
14 192
12 161
16 139
4 104
1 119
16 130
15 32
7 7
10 23
20 188
6 122
18 46
17 181
19 28
10 156
8 58
18 153
20 73
18 151
14 146
3 35
12 162
5 44
20 171
17 183
17 10
9 9
15 153
16 75
9 67
3 198
20 76
20 167
5 106
5 27
9 167
6 61
15 134
18 185
2 29
6 125
17 180
7 181
3 79
9 27
10 53
14 148
1 133
20 44
10 142
3 63
20 90
15 50
14 55
18 171
14 1
6 47
15 8
12 49
6 136
